sat
(:added-eqs                   141521
 :arith-eq-adapter            1530
 :arith-bound-propagations-lp 7768
 :arith-conflicts             8
 :arith-diseq                 6784
 :arith-fixed-eqs             7313
 :arith-lower                 10369
 :arith-make-feasible         6012
 :arith-max-columns           719
 :arith-max-rows              289
 :arith-offset-eqs            2413
 :arith-upper                 11948
 :binary-propagations         661512
 :conflicts                   2156
 :decisions                   200314
 :del-clause                  3066
 :elim-unconstrained          2
 :final-checks                1
 :max-memory                  29.90
 :memory                      22.18
 :minimized-lits              12406
 :mk-bool-var                 10151
 :mk-clause                   6498
 :mk-clause-binary            10209
 :num-allocs                  25913560
 :num-checks                  1
 :propagations                848984
 :restarts                    18
 :rlimit-count                8667824
 :time                        3.91
 :total-time                  4.12)
